13 42
1 2 1
1 3 1
1 4 0
1 5 0
1 6 1
1 7 0
1 8 1
1 9 0
1 10 0
1 11 1
1 12 0
1 13 1
2 3 1
2 4 0
2 5 0
2 6 0
2 7 0
2 8 1
2 9 1
2 10 1
2 11 0
2 12 1
2 13 0
3 4 1
3 5 1
3 6 1
3 7 1
3 8 0
3 9 0
3 10 1
3 11 0
3 12 1
3 13 1
4 5 0
4 6 1
4 7 1
4 8 0
4 9 0
4 10 1
4 11 1
4 12 0
4 13 1
5 6 1
5 7 1
5 8 0
5 9 0
5 10 1
5 11 1
5 12 0
5 13 1
6 7 0
6 8 0
6 9 1
6 10 0
6 11 0
6 12 0
6 13 0
7 8 1
7 9 1
7 10 0
7 11 1
7 12 0
7 13 1
8 9 1
8 10 1
8 11 0
8 12 0
8 13 0
9 10 0
9 11 1
9 12 0
9 13 1
10 11 1
10 12 1
10 13 1
11 12 1
11 13 0
12 13 1
